n_res = 4;
rcap = [18, 15, 20, 62];
rtype = [1, 1, 2, 2];
n_tasks = 16;
modes = [ {1}, {2}, {3}, {4}, {5}, {6}, {7}, {8}, {9}, {10}, {11}, {12}, {13}, {14}, {15}, {16} ];
succ = [ {5, 9}, {5, 9, 12}, {4, 10}, {6, 8, 12}, {7, 15}, {11, 13}, {10}, {14, 15, 16}, {10, 13}, {11}, {14, 16}, {13, 15, 16}, {14}, {}, {}, {} ];
n_opt = 16;
dur = [8, 6, 8, 6, 6, 8, 4, 2, 7, 5, 5, 2, 9, 10, 9, 2];
rreq = [|  4,  0,  0,  0, 10,  6,  7,  0,  0,  2,  2,  8,  0,  4,  6,  5
        |  0,  3,  5,  8,  0,  0,  0,  6,  9,  0,  0,  0,  2,  0,  0,  0
        |  4,  0,  0,  4,  0,  0,  6,  5,  0,  0,  0,  0,  0,  0,  0,  1
        |  0,  5,  5,  0,  2, 10,  0,  0,  4,  4,  5,  7, 10,  7,  3,  0 |];
